
n_res = 8;
rcap = [28, 27, 30, 28, 1450, 1517, 1545, 1407];
rtype = [1, 1, 1, 1, 2, 2, 2, 2];
n_tasks = 100;
modes =  [{1, 2, 3}, {4, 5, 6}, {7, 8, 9}, {10, 11, 12}, {13, 14, 15}, {16, 17, 18}, {19, 20, 21}, {22, 23, 24}, {25, 26, 27}, {28, 29, 30}, {31, 32, 33}, {34, 35, 36}, {37, 38, 39}, {40, 41, 42}, {43, 44, 45}, {46, 47, 48}, {49, 50, 51}, {52, 53, 54}, {55, 56, 57}, {58, 59, 60}, {61, 62, 63}, {64, 65, 66}, {67, 68, 69}, {70, 71, 72}, {73, 74, 75}, {76, 77, 78}, {79, 80, 81}, {82, 83, 84}, {85, 86, 87}, {88, 89, 90}, {91, 92, 93}, {94, 95, 96}, {97, 98, 99}, {100, 101, 102}, {103, 104, 105}, {106, 107, 108}, {109, 110, 111}, {112, 113, 114}, {115, 116, 117}, {118, 119, 120}, {121, 122, 123}, {124, 125, 126}, {127, 128, 129}, {130, 131, 132}, {133, 134, 135}, {136, 137, 138}, {139, 140, 141}, {142, 143, 144}, {145, 146, 147}, {148, 149, 150}, {151, 152, 153}, {154, 155, 156}, {157, 158, 159}, {160, 161, 162}, {163, 164, 165}, {166, 167, 168}, {169, 170, 171}, {172, 173, 174}, {175, 176, 177}, {178, 179, 180}, {181, 182, 183}, {184, 185, 186}, {187, 188, 189}, {190, 191, 192}, {193, 194, 195}, {196, 197, 198}, {199, 200, 201}, {202, 203, 204}, {205, 206, 207}, {208, 209, 210}, {211, 212, 213}, {214, 215, 216}, {217, 218, 219}, {220, 221, 222}, {223, 224, 225}, {226, 227, 228}, {229, 230, 231}, {232, 233, 234}, {235, 236, 237}, {238, 239, 240}, {241, 242, 243}, {244, 245, 246}, {247, 248, 249}, {250, 251, 252}, {253, 254, 255}, {256, 257, 258}, {259, 260, 261}, {262, 263, 264}, {265, 266, 267}, {268, 269, 270}, {271, 272, 273}, {274, 275, 276}, {277, 278, 279}, {280, 281, 282}, {283, 284, 285}, {286, 287, 288}, {289, 290, 291}, {292, 293, 294}, {295, 296, 297}, {298, 299, 300}];
succ =  [{11, 10, 7, 6, 2}, {25, 23, 21, 19, 18, 16, 14, 13, 12}, {23, 22, 16, 15, 11, 10, 9}, {28, 25, 24, 21, 19, 18, 16, 15, 14}, {25, 24, 22, 18, 17, 16, 15}, {32, 28, 26, 25, 24, 23, 20, 19, 18, 15}, {28, 25, 22, 21, 19, 18, 16}, {32, 28, 26, 21, 20, 15}, {39, 33, 32, 30, 28, 27, 26, 24, 21, 19}, {44, 39, 33, 32, 31, 30, 29, 28, 27, 26, 24}, {39, 33, 32, 31, 25, 21, 18}, {44, 28, 24, 15}, {44, 41, 39, 36, 32, 31, 29, 28, 27, 26, 24}, {41, 33, 30, 29, 27, 26, 22}, {41, 39, 33, 31, 30, 29, 27}, {36, 32, 27, 26, 20}, {39, 29, 27, 26, 21}, {44, 41, 40, 35, 30, 27}, {48, 45, 44, 41, 40, 34, 29}, {49, 45, 44, 42, 40, 39, 38, 37, 34}, {45, 43, 42, 41, 40, 38, 37, 36}, {52, 50, 49, 44, 42, 39, 31}, {48, 45, 44, 41, 36, 35}, {45, 38, 35, 34}, {54, 52, 50, 49, 48, 46, 45, 44, 43, 37}, {52, 50, 48, 46, 43, 35}, {49, 45, 42, 38, 34}, {45, 42, 38, 34}, {52, 46, 43, 35}, {47, 46, 45, 36}, {48, 46, 45, 40, 37}, {58, 54, 50, 49, 48, 47, 46, 43}, {58, 54, 52, 48, 47, 46, 45, 42}, {59, 58, 55, 54, 52, 51, 50, 46, 43}, {57, 54, 49, 42, 37}, {59, 58, 57, 55, 54, 52, 50, 49}, {58, 55, 53, 51, 47}, {58, 53, 52, 51, 48}, {59, 57, 55, 51, 46}, {59, 58, 57, 55, 54, 53}, {61, 59, 54, 51, 46}, {63, 60, 59, 55, 51}, {66, 63, 61, 57, 53}, {60, 59, 57, 51}, {72, 70, 66, 65, 63, 62, 61, 60, 56}, {66, 65, 63, 53}, {65, 64, 63, 62, 61, 59}, {63, 61, 60, 59, 56}, {66, 51}, {65, 53}, {78, 77, 72, 70, 65, 62, 56}, {72, 67, 66, 65, 62, 61, 60}, {70, 62, 60, 56}, {71, 70, 64, 63, 60}, {81, 71, 70, 64, 61}, {75, 71, 69, 68, 64}, {78, 71, 65, 64}, {86, 84, 82, 81, 79, 77, 76, 75, 74, 73, 71, 70}, {84, 82, 76, 71, 70, 69, 66}, {82, 78, 77, 76, 75, 73, 69}, {87, 82, 80, 78, 77, 75, 68}, {81, 80, 75, 71, 68}, {87, 77, 76, 73, 69}, {90, 84, 82, 67}, {86, 82, 81, 80, 79, 76, 73}, {86, 80, 79, 75, 73}, {99, 97, 87, 86, 85, 83, 79, 74}, {86, 76, 73}, {99, 97, 95, 90, 86, 85, 83, 81, 79}, {99, 98, 97, 96, 95, 94, 90, 89, 88, 87, 85}, {99, 98, 97, 96, 95, 94, 89, 88, 87, 85}, {100, 95, 87, 84, 79}, {99, 98, 97, 96, 95, 94, 85, 83}, {100, 96, 93, 89, 88, 80}, {97, 96, 95, 90, 83}, {96, 95, 94, 93, 90, 89}, {100, 99, 97, 94, 92, 88}, {100, 98, 95, 93, 91, 90}, {96, 94, 93, 89, 88}, {98, 95, 94, 92, 91}, {94, 93, 92, 88}, {99, 98, 93, 91}, {93, 92, 88}, {97, 93, 91}, {93, 91}, {100, 92}, {92, 91}, {91}, {91}, {92}, {}, {}, {}, {}, {}, {}, {}, {}, {}, {}];
n_opt = 300;
dur = [14, 17, 30, 9, 11, 26, 18, 24, 27, 2, 24, 25, 2, 17, 18, 12, 21, 28, 11, 15, 17, 9, 21, 27, 5, 13, 17, 2, 9, 17, 18, 20, 27, 7, 8, 30, 3, 6, 23, 10, 15, 19, 2, 12, 25, 11, 13, 22, 4, 5, 13, 9, 10, 27, 15, 23, 30, 16, 18, 23, 19, 20, 25, 3, 11, 27, 4, 7, 22, 8, 19, 23, 2, 18, 19, 14, 15, 26, 6, 14, 20, 7, 24, 26, 10, 11, 29, 4, 18, 21, 13, 17, 18, 9, 14, 30, 4, 6, 22, 10, 24, 26, 19, 22, 24, 25, 26, 27, 5, 9, 23, 6, 8, 11, 17, 20, 25, 9, 15, 24, 3, 5, 26, 7, 14, 27, 5, 15, 27, 6, 7, 28, 9, 20, 25, 10, 23, 30, 10, 16, 25, 2, 9, 24, 9, 19, 24, 20, 21, 29, 13, 28, 29, 16, 23, 27, 22, 27, 28, 14, 16, 23, 8, 13, 25, 11, 18, 20, 6, 14, 15, 3, 5, 26, 1, 17, 30, 13, 14, 26, 5, 17, 25, 3, 12, 29, 9, 12, 28, 5, 22, 26, 3, 7, 10, 15, 20, 30, 7, 14, 22, 6, 15, 21, 3, 13, 19, 8, 9, 18, 4, 5, 7, 4, 14, 28, 19, 20, 21, 7, 10, 11, 2, 15, 16, 9, 10, 19, 1, 10, 12, 6, 19, 24, 5, 15, 23, 10, 11, 17, 8, 10, 24, 14, 26, 30, 5, 9, 22, 18, 25, 27, 4, 16, 27, 15, 21, 26, 5, 15, 28, 6, 29, 30, 9, 21, 23, 2, 14, 26, 9, 17, 30, 17, 21, 22, 11, 19, 20, 21, 24, 25, 4, 14, 26, 19, 29, 30, 16, 17, 29, 10, 11, 24, 15, 19, 24, 3, 18, 23];
rreq = [|4, 2, 2, 3, 1, 1, 3, 3, 3, 3, 3, 2, 5, 5, 5, 4, 4, 4, 3, 2, 2, 3, 3, 3, 2, 2, 2, 5, 4, 4, 5, 3, 3, 4, 2, 1, 2, 2, 2, 1, 1, 1, 3, 3, 3, 4, 4, 2, 5, 5, 5, 3, 3, 1, 4, 4, 4, 5, 4, 3, 4, 2, 2, 1, 1, 1, 3, 3, 3, 2, 1, 1, 2, 2, 2, 4, 2, 2, 5, 4, 4, 2, 2, 2, 5, 3, 3, 5, 3, 3, 2, 1, 1, 5, 3, 2, 3, 3, 3, 1, 1, 1, 1, 1, 1, 1, 1, 1, 5, 4, 4, 3, 3, 3, 4, 4, 3, 2, 2, 2, 1, 1, 1, 5, 4, 4, 2, 2, 2, 4, 4, 4, 5, 3, 3, 5, 4, 3, 3, 2, 2, 2, 2, 2, 1, 1, 1, 1, 1, 1, 4, 3, 3, 4, 2, 2, 5, 5, 5, 5, 5, 5, 4, 3, 3, 4, 4, 2, 2, 1, 1, 4, 2, 2, 4, 3, 3, 3, 3, 2, 3, 3, 3, 5, 3, 2, 4, 4, 4, 4, 3, 3, 3, 2, 2, 4, 2, 1, 4, 3, 3, 3, 1, 1, 4, 4, 4, 3, 3, 3, 4, 4, 3, 1, 1, 1, 2, 2, 2, 1, 1, 1, 2, 1, 1, 4, 3, 2, 5, 5, 5, 3, 1, 1, 4, 2, 2, 4, 2, 2, 1, 1, 1, 5, 2, 1, 1, 1, 1, 2, 1, 1, 5, 4, 2, 3, 3, 3, 1, 1, 1, 3, 3, 3, 3, 2, 2, 3, 2, 2, 4, 2, 2, 3, 2, 2, 4, 3, 3, 4, 4, 4, 4, 3, 1, 1, 1, 1, 4, 4, 4, 1, 1, 1, 4, 3, 1, 4, 2, 2
 |4, 3, 3, 4, 4, 4, 5, 5, 5, 3, 2, 1, 3, 3, 2, 2, 2, 2, 5, 5, 5, 4, 3, 3, 2, 2, 1, 2, 2, 2, 5, 4, 3, 4, 3, 3, 4, 2, 2, 4, 4, 3, 4, 2, 2, 2, 2, 2, 4, 4, 4, 4, 4, 4, 2, 2, 2, 5, 3, 3, 1, 1, 1, 4, 4, 4, 4, 3, 3, 2, 2, 2, 3, 2, 1, 2, 2, 2, 4, 4, 3, 2, 2, 2, 4, 4, 2, 3, 2, 2, 4, 2, 2, 5, 5, 5, 4, 2, 2, 1, 1, 1, 2, 1, 1, 3, 3, 3, 5, 4, 3, 5, 5, 5, 2, 1, 1, 4, 4, 4, 3, 3, 3, 1, 1, 1, 3, 2, 1, 5, 4, 4, 1, 1, 1, 2, 1, 1, 4, 4, 3, 4, 3, 3, 3, 3, 2, 1, 1, 1, 4, 4, 4, 1, 1, 1, 1, 1, 1, 2, 1, 1, 4, 3, 3, 3, 3, 1, 2, 2, 1, 2, 1, 1, 3, 2, 1, 3, 3, 1, 4, 4, 4, 4, 3, 3, 3, 2, 2, 3, 3, 1, 2, 1, 1, 1, 1, 1, 2, 2, 2, 1, 1, 1, 5, 4, 2, 3, 2, 2, 3, 3, 3, 5, 5, 5, 5, 3, 1, 1, 1, 1, 5, 4, 3, 5, 4, 4, 4, 4, 2, 3, 3, 2, 4, 3, 3, 2, 2, 2, 3, 3, 2, 4, 2, 2, 4, 3, 3, 4, 4, 4, 2, 2, 2, 4, 4, 3, 5, 3, 1, 2, 2, 2, 3, 2, 1, 3, 3, 2, 5, 5, 5, 1, 1, 1, 3, 3, 2, 4, 4, 4, 3, 3, 1, 2, 2, 2, 5, 4, 4, 4, 3, 2, 4, 4, 3, 3, 2, 2
 |3, 3, 1, 2, 1, 1, 3, 2, 2, 5, 5, 5, 4, 3, 3, 4, 3, 3, 4, 4, 4, 3, 3, 2, 4, 4, 4, 3, 3, 3, 2, 2, 2, 3, 3, 3, 4, 2, 1, 5, 3, 3, 1, 1, 1, 3, 2, 1, 4, 4, 4, 3, 2, 1, 5, 3, 3, 2, 1, 1, 2, 2, 2, 4, 3, 3, 4, 4, 4, 1, 1, 1, 5, 4, 4, 1, 1, 1, 2, 1, 1, 1, 1, 1, 4, 3, 2, 4, 2, 2, 3, 1, 1, 4, 4, 4, 3, 3, 3, 4, 4, 3, 5, 3, 2, 5, 3, 2, 5, 5, 5, 4, 3, 3, 2, 2, 2, 5, 3, 3, 5, 3, 2, 4, 3, 2, 3, 3, 1, 4, 4, 3, 5, 4, 3, 1, 1, 1, 2, 2, 1, 4, 3, 3, 3, 2, 2, 4, 2, 2, 5, 4, 3, 2, 2, 2, 3, 3, 1, 4, 4, 3, 2, 2, 1, 5, 3, 1, 1, 1, 1, 4, 3, 3, 4, 4, 2, 3, 3, 2, 3, 3, 3, 3, 3, 3, 3, 2, 1, 5, 4, 3, 4, 4, 4, 4, 3, 2, 4, 2, 1, 4, 3, 3, 3, 2, 2, 3, 2, 1, 3, 3, 3, 4, 3, 2, 4, 2, 2, 1, 1, 1, 4, 4, 4, 5, 4, 3, 4, 4, 4, 4, 3, 3, 2, 2, 2, 2, 1, 1, 5, 4, 2, 4, 4, 4, 3, 2, 2, 3, 2, 1, 4, 4, 4, 3, 3, 2, 3, 2, 2, 2, 2, 2, 2, 2, 2, 4, 3, 3, 5, 4, 3, 4, 3, 2, 1, 1, 1, 2, 2, 1, 4, 4, 4, 3, 3, 3, 3, 1, 1, 2, 2, 2, 4, 2, 2, 2, 1, 1
 |2, 1, 1, 4, 3, 3, 4, 4, 4, 4, 3, 3, 1, 1, 1, 5, 3, 3, 4, 3, 1, 2, 2, 2, 3, 2, 1, 5, 4, 4, 2, 2, 2, 4, 3, 3, 3, 3, 3, 4, 4, 3, 2, 2, 2, 4, 2, 2, 3, 2, 1, 1, 1, 1, 5, 5, 5, 2, 2, 2, 2, 2, 2, 2, 1, 1, 3, 2, 2, 4, 2, 2, 4, 4, 4, 4, 4, 4, 4, 4, 4, 3, 2, 2, 3, 1, 1, 5, 4, 4, 4, 4, 4, 4, 3, 3, 3, 3, 3, 3, 2, 2, 3, 2, 2, 4, 4, 4, 3, 2, 2, 2, 2, 1, 2, 2, 2, 4, 2, 2, 4, 3, 3, 3, 3, 1, 3, 1, 1, 5, 3, 3, 3, 3, 2, 4, 3, 3, 3, 3, 1, 3, 3, 2, 2, 2, 1, 3, 3, 2, 2, 2, 2, 4, 3, 2, 4, 3, 3, 2, 1, 1, 4, 4, 4, 3, 1, 1, 3, 3, 3, 3, 3, 2, 3, 1, 1, 4, 3, 2, 3, 3, 2, 4, 4, 3, 4, 3, 3, 4, 3, 3, 3, 3, 3, 4, 4, 4, 2, 2, 1, 4, 4, 4, 3, 2, 1, 3, 2, 2, 5, 2, 1, 4, 4, 4, 4, 3, 3, 4, 4, 2, 3, 2, 2, 2, 1, 1, 1, 1, 1, 4, 3, 3, 3, 2, 2, 4, 2, 2, 3, 2, 1, 2, 1, 1, 1, 1, 1, 2, 1, 1, 3, 2, 2, 3, 3, 3, 3, 2, 2, 2, 2, 1, 3, 3, 3, 3, 3, 3, 4, 4, 4, 4, 2, 2, 2, 2, 2, 4, 2, 2, 5, 3, 2, 4, 4, 2, 1, 1, 1, 2, 2, 2, 3, 2, 2, 4, 3, 3
 |19, 12, 11, 11, 8, 7, 11, 7, 5, 14, 10, 7, 11, 8, 8, 25, 17, 13, 17, 14, 7, 22, 18, 12, 6, 4, 4, 2, 1, 1, 15, 7, 7, 22, 17, 4, 19, 18, 15, 20, 15, 13, 25, 17, 4, 20, 15, 4, 27, 13, 12, 6, 6, 4, 9, 7, 4, 12, 8, 7, 20, 20, 20, 9, 8, 8, 25, 25, 25, 21, 13, 11, 28, 18, 7, 22, 13, 4, 25, 20, 17, 23, 20, 19, 25, 17, 13, 4, 4, 3, 11, 8, 6, 9, 6, 3, 23, 20, 19, 3, 3, 3, 22, 21, 17, 28, 24, 20, 14, 10, 9, 23, 13, 9, 16, 12, 6, 29, 21, 17, 19, 15, 11, 25, 24, 23, 27, 13, 9, 20, 19, 8, 8, 4, 2, 24, 24, 23, 23, 23, 21, 4, 3, 3, 23, 22, 22, 21, 19, 19, 10, 8, 8, 24, 23, 23, 20, 19, 17, 14, 12, 12, 4, 4, 2, 19, 8, 2, 16, 11, 7, 24, 16, 15, 13, 9, 5, 29, 19, 17, 20, 17, 15, 22, 20, 19, 14, 14, 14, 21, 19, 16, 27, 25, 25, 14, 13, 11, 22, 15, 13, 24, 21, 18, 15, 12, 7, 7, 5, 1, 12, 11, 6, 26, 25, 25, 8, 7, 2, 18, 18, 11, 13, 8, 5, 23, 22, 22, 29, 28, 26, 11, 10, 9, 14, 8, 5, 15, 8, 3, 28, 21, 16, 13, 13, 11, 30, 20, 11, 14, 12, 11, 27, 25, 25, 13, 13, 2, 17, 15, 12, 15, 6, 1, 24, 11, 8, 25, 22, 19, 25, 23, 23, 24, 18, 13, 18, 15, 1, 20, 13, 10, 11, 10, 2, 27, 16, 14, 13, 8, 4, 18, 15, 14, 15, 14, 12, 9, 5, 3
 |28, 21, 19, 24, 19, 8, 22, 18, 18, 24, 20, 8, 23, 16, 14, 21, 14, 11, 28, 23, 22, 25, 16, 12, 12, 11, 11, 24, 20, 6, 24, 19, 14, 11, 9, 9, 3, 3, 3, 28, 21, 11, 27, 12, 8, 12, 6, 4, 23, 19, 9, 12, 10, 10, 22, 13, 11, 23, 17, 9, 13, 12, 11, 30, 27, 27, 8, 6, 6, 21, 20, 15, 30, 29, 28, 20, 17, 17, 14, 10, 6, 20, 19, 19, 12, 12, 11, 17, 14, 8, 11, 11, 11, 17, 16, 15, 21, 20, 19, 19, 15, 12, 8, 5, 3, 28, 27, 26, 18, 18, 16, 18, 17, 8, 28, 25, 25, 18, 17, 17, 28, 28, 28, 24, 22, 17, 15, 13, 11, 2, 2, 2, 3, 3, 2, 21, 19, 16, 21, 20, 7, 29, 21, 21, 22, 22, 21, 19, 9, 6, 9, 8, 8, 15, 9, 4, 14, 9, 8, 16, 15, 11, 23, 20, 17, 25, 23, 22, 24, 12, 2, 9, 6, 1, 24, 22, 22, 11, 8, 5, 17, 14, 10, 27, 26, 26, 14, 11, 11, 18, 11, 8, 10, 6, 4, 19, 15, 7, 11, 10, 7, 25, 20, 8, 19, 17, 3, 23, 16, 12, 16, 9, 8, 19, 12, 8, 12, 8, 4, 25, 23, 21, 9, 9, 9, 26, 14, 10, 29, 29, 28, 17, 11, 3, 19, 15, 7, 18, 16, 6, 6, 5, 5, 28, 24, 18, 27, 20, 6, 24, 17, 13, 13, 8, 6, 23, 8, 3, 23, 17, 17, 23, 23, 23, 18, 12, 6, 15, 15, 9, 8, 7, 7, 13, 13, 12, 25, 23, 22, 20, 15, 12, 24, 16, 10, 28, 15, 10, 15, 13, 11, 23, 11, 6, 5, 5, 5, 7, 6, 4
 |27, 21, 21, 16, 14, 7, 26, 26, 23, 17, 15, 14, 22, 19, 10, 4, 3, 3, 25, 24, 18, 20, 16, 9, 3, 2, 1, 22, 12, 4, 29, 24, 21, 21, 18, 15, 5, 4, 4, 21, 19, 19, 10, 7, 6, 19, 9, 7, 15, 13, 10, 26, 24, 22, 19, 9, 5, 12, 11, 11, 23, 13, 4, 7, 7, 7, 16, 16, 9, 7, 6, 6, 25, 23, 22, 29, 25, 16, 22, 12, 4, 27, 26, 26, 7, 6, 5, 25, 21, 12, 10, 8, 7, 13, 11, 11, 20, 13, 11, 11, 9, 6, 13, 12, 10, 16, 13, 10, 29, 26, 23, 20, 12, 7, 25, 22, 19, 25, 25, 19, 24, 15, 11, 22, 21, 20, 18, 17, 15, 14, 13, 11, 19, 17, 12, 18, 14, 12, 9, 6, 4, 16, 13, 9, 14, 12, 9, 27, 19, 19, 24, 20, 18, 12, 9, 7, 14, 12, 9, 19, 17, 9, 14, 12, 11, 24, 23, 23, 24, 13, 8, 27, 21, 13, 16, 12, 8, 2, 1, 1, 12, 11, 11, 21, 17, 16, 22, 17, 8, 21, 14, 5, 22, 21, 19, 25, 24, 23, 25, 19, 9, 25, 21, 18, 10, 5, 3, 29, 28, 27, 14, 13, 11, 20, 15, 9, 19, 18, 17, 15, 15, 15, 10, 10, 10, 21, 20, 9, 27, 24, 21, 18, 17, 16, 28, 20, 17, 9, 9, 9, 18, 12, 8, 18, 14, 12, 25, 25, 25, 20, 16, 15, 9, 6, 5, 9, 8, 4, 20, 10, 6, 22, 22, 20, 19, 16, 14, 24, 14, 9, 22, 21, 21, 8, 4, 2, 20, 19, 17, 19, 17, 7, 23, 16, 12, 25, 24, 22, 25, 15, 10, 26, 24, 21, 12, 11, 11, 24, 22, 16
 |21, 13, 12, 10, 8, 8, 7, 7, 7, 27, 19, 4, 20, 13, 11, 28, 21, 11, 25, 25, 19, 27, 20, 15, 28, 18, 9, 5, 3, 2, 2, 1, 1, 28, 18, 8, 17, 16, 15, 11, 8, 6, 14, 14, 11, 10, 9, 3, 29, 20, 14, 22, 22, 22, 7, 6, 6, 13, 6, 5, 14, 9, 2, 14, 7, 2, 29, 25, 19, 16, 12, 8, 16, 15, 6, 19, 16, 13, 12, 8, 7, 14, 14, 14, 20, 19, 15, 3, 1, 1, 20, 11, 5, 20, 13, 5, 27, 24, 22, 20, 16, 9, 20, 10, 1, 7, 5, 3, 19, 19, 19, 8, 4, 3, 3, 3, 3, 24, 21, 18, 12, 9, 8, 19, 17, 17, 25, 25, 25, 22, 20, 19, 15, 12, 12, 16, 15, 10, 8, 5, 1, 7, 7, 5, 21, 14, 3, 13, 11, 11, 26, 20, 14, 25, 20, 10, 17, 14, 11, 19, 11, 6, 7, 6, 5, 20, 19, 11, 12, 12, 12, 28, 21, 6, 16, 12, 10, 27, 21, 16, 28, 25, 21, 30, 25, 23, 11, 11, 11, 20, 17, 8, 9, 3, 1, 28, 16, 8, 15, 15, 14, 20, 20, 17, 17, 17, 15, 14, 14, 13, 29, 22, 15, 20, 12, 10, 25, 25, 25, 2, 2, 2, 16, 9, 8, 14, 14, 14, 20, 19, 15, 23, 23, 23, 17, 14, 3, 6, 5, 5, 28, 22, 18, 26, 20, 16, 23, 21, 20, 20, 15, 15, 25, 21, 18, 17, 12, 2, 25, 21, 17, 10, 10, 7, 19, 14, 12, 24, 15, 6, 13, 11, 7, 13, 9, 2, 21, 10, 4, 19, 13, 12, 17, 12, 6, 16, 15, 13, 12, 8, 6, 3, 2, 2, 25, 22, 21, 17, 16, 15|];